model.lp
Maximize
  9
Subject To
 R0: 37 + 55 = 0
 R1: - 14 - 57 = 0
 R2: - 1.496 9 - 55 + 57 = 0
 R3: - 39 + 56 = 0
 R4: 36 - 56 = 0
 R5: - 0 + 2 = 0
 R6: - 2 - 16 = 0
 R7: - 3 - 3.7478 9 - 11 - 44 + 51 + 53 - 62 = 0
 R8: 0 + 62 = 0
 R9: 0 + 2 4 + 7 - 8 + 55.703 9 + 52 + 55 + 60 - 63 + 71 = 0
 R10: - 5 + 6 - 1.0789 9 + 41 = 0
 R11: - 6 - 17 = 0
 R12: - 4 + 61 = 0
 R13: - 0 - 4 - 7 + 8 - 55.703 9 - 52 - 55 - 60 - 61 + 63 - 71 = 0
 R14: - 1 + 11 = 0
 R15: 5 + 10 + 39 + 41 + 46 + 47 + 51 - 59 + 60 = 0
 R16: - 10 - 18 = 0
 R17: 3 - 5 + 3.7478 9 + 11 + 44 - 51 - 53 + 62 - 71 = 0
 R18: 30 - 76 = 0
 R19: - 0.361 9 + 72 - 75 = 0
 R20: 3 + 15 = 0
 R21: - 15 - 19 = 0
 R22: - 0.0709 9 + 31 - 52 + 54 + 72 + 75 = 0
 R23: 33 - 69 + 70 = 0
 R24: - 33 + 69 - 70 = 0
 R25: - 30 - 31 + 52 = 0
 R26: 32 + 53 = 0
 R27: - 20 - 32 = 0
 R28: - 33 - 34 + 35 + 69 = 0
 R29: - 21 - 35 = 0
 R30: - 0.129 9 + 30 - 37 - 72 + 74 + 75 + 76 = 0
 R31: - 0.205 9 - 36 + 38 - 54 = 0
 R32: - 22 - 38 = 0
 R33: 42 - 44 = 0
 R34: - 7 + 8 - 55.703 9 - 11 + 12 + 14 - 31 - 34 + 40 - 44 - 56 - 59 - 61
   = 0
 R35: - 23 - 40 = 0
 R36: 2 - 2 3 + 6 + 7 + 3 8 + 41.025 9 + 11 - 2 12 + 13 + 15 + 2 35 + 36
   + 37 + 43 + 44 + 45 - 3 48 + 52 + 56 + 59 + 2 61 - 63 + 64 + 2 67 - 68
   + 2 73 = 0
 R37: - 2 - 6 - 4 8 + 2 12 - 13 - 15 - 24 - 2 35 + 2 48 - 64 - 2 67 + 68
   - 2 73 = 0
 R38: 1 - 41 - 42 = 0
 R39: 13 - 43 = 0
 R40: - 13 - 25 = 0
 R41: 34 + 44 - 45 - 46 - 47 = 0
 R42: 2 3 - 5 - 3.547 9 - 37 - 43 - 45 - 46 + 48 - 49 - 51 + 73 = 0
 R43: - 2 3 + 5 + 3.547 9 + 37 + 43 + 45 + 46 - 48 + 49 + 51 - 73 = 0
 R44: 18.225 9 - 36 - 39 - 41 - 47 + 49 - 73 = 0
 R45: - 18.225 9 + 36 + 39 + 41 + 47 - 49 + 73 = 0
 R46: - 0.5 12 + 50 = 0
 R47: - 26 - 50 = 0
 R48: - 1.7867 9 - 11 + 45 + 59 - 60 = 0
 R49: - 0.5191 9 + 14 - 38 - 59 + 60 + 61 - 63 = 0
 R50: 7 - 8 + 55.703 9 + 31 - 37 - 58 + 59 + 61 - 62 + 71 = 0
 R51: - 27 + 58 = 0
 R52: - 2.8328 9 + 38 + 43 + 46 + 47 - 51 - 53 - 61 + 63 + 64 = 0
 R53: - 28 - 64 = 0
 R54: 12 - 48 - 70 = 0
 R55: - 12 + 48 + 70 = 0
 R56: - 0.8977 9 - 66 - 74 = 0
 R57: 39 - 65 + 66 = 0
 R58: - 72 + 74 = 0
 R59: 33 + 42 + 67 - 68 - 69 - 71 = 0
 R60: - 29 - 67 + 68 = 0
 R61: 5 + 71 = 0
 R62: 65 - 74 - 75 = 0
Bounds
 -999999 <= 0 <= 999999
 -999999 <= 1 <= 999999
 -999999 <= 2 <= 999999
 -999999 <= 3 <= 999999
 -999999 <= 4 <= 999999
 5 <= 999999
 -999999 <= 6 <= 999999
 7 = 7.6
 -999999 <= 8 <= 999999
 9 <= 999999
 -999999 <= 10 <= 999999
 11 <= 999999
 12 <= 999999
 -999999 <= 13 <= 999999
 -999999 <= 14 <= 999999
 -999999 <= 15 <= 999999
 16 <= 999999
 17 <= 999999
 -999999 <= 18 <= 999999
 19 <= 999999
 20 <= 999999
 21 <= 999999
 -10 <= 22 <= 999999
 -999999 <= 23 <= 999999
 -999999 <= 24 <= 999999
 25 <= 999999
 -999999 <= 26 <= 999999
 -999999 <= 27 <= 999999
 28 <= 999999
 29 <= 999999
 -999999 <= 30 <= 999999
 31 <= 999999
 -999999 <= 32 <= 999999
 33 <= 999999
 -999999 <= 34 <= 999999
 35 <= 999999
 -999999 <= 36 <= 999999
 -999999 <= 37 <= 999999
 38 <= 999999
 39 <= 999999
 -999999 <= 40 <= 999999
 -999999 <= 41 <= 999999
 42 <= 999999
 -999999 <= 43 <= 999999
 44 <= 999999
 -999999 <= 45 <= 999999
 46 <= 999999
 47 <= 999999
 48 <= 999999
 49 <= 999999
 -999999 <= 50 <= 999999
 51 <= 999999
 52 <= 999999
 53 <= 999999
 -999999 <= 54 <= 999999
 -999999 <= 55 <= 999999
 56 <= 999999
 -999999 <= 57 <= 999999
 -999999 <= 58 <= 999999
 59 <= 999999
 60 <= 999999
 61 <= 999999
 -999999 <= 62 <= 999999
 63 <= 999999
 -999999 <= 64 <= 999999
 -999999 <= 65 <= 999999
 -999999 <= 66 <= 999999
 67 <= 999999
 68 <= 999999
 69 <= 999999
 -999999 <= 70 <= 999999
 -999999 <= 71 <= 999999
 -999999 <= 72 <= 999999
 73 <= 999999
 -999999 <= 74 <= 999999
 -999999 <= 75 <= 999999
 -999999 <= 76 <= 999999
End
