model.mps
NAME (null)
* Max problem is converted into Min one
ROWS
 N  OBJ
 E  R0      
 E  R1      
 E  R2      
 E  R3      
 E  R4      
 E  R5      
 E  R6      
 E  R7      
 E  R8      
 E  R9      
 E  R10     
 E  R11     
 E  R12     
 E  R13     
 E  R14     
 E  R15     
 E  R16     
 E  R17     
 E  R18     
 E  R19     
 E  R20     
 E  R21     
 E  R22     
 E  R23     
 E  R24     
 E  R25     
 E  R26     
 E  R27     
 E  R28     
 E  R29     
 E  R30     
 E  R31     
 E  R32     
 E  R33     
 E  R34     
 E  R35     
 E  R36     
 E  R37     
 E  R38     
 E  R39     
 E  R40     
 E  R41     
 E  R42     
 E  R43     
 E  R44     
 E  R45     
 E  R46     
 E  R47     
 E  R48     
 E  R49     
 E  R50     
 E  R51     
 E  R52     
 E  R53     
 E  R54     
 E  R55     
 E  R56     
 E  R57     
 E  R58     
 E  R59     
 E  R60     
 E  R61     
 E  R62     
COLUMNS
    0         R5        -1
    0         R8        1
    0         R9        1
    0         R13       -1
    1         R14       -1
    1         R38       1
    2         R5        1
    2         R6        -1
    2         R36       1
    2         R37       -1
    3         R7        -1
    3         R17       1
    3         R20       1
    3         R36       -2
    3         R42       2
    3         R43       -2
    4         R9        2
    4         R12       -1
    4         R13       -1
    5         R10       -1
    5         R15       1
    5         R17       -1
    5         R42       -1
    5         R43       1
    5         R61       1
    6         R10       1
    6         R11       -1
    6         R36       1
    6         R37       -1
    7         R9        1
    7         R13       -1
    7         R34       -1
    7         R36       1
    7         R50       1
    8         R9        -1
    8         R13       1
    8         R34       1
    8         R36       3
    8         R37       -4
    8         R50       -1
    9         OBJ       -1
    9         R2        -1.496
    9         R7        -3.7478
    9         R9        55.703
    9         R10       -1.0789
    9         R13       -55.703
    9         R17       3.7478
    9         R19       -0.361
    9         R22       -0.0709
    9         R30       -0.129
    9         R31       -0.205
    9         R34       -55.703
    9         R36       41.025
    9         R42       -3.547
    9         R43       3.547
    9         R44       18.225
    9         R45       -18.225
    9         R48       -1.7867
    9         R49       -0.5191
    9         R50       55.703
    9         R52       -2.8328
    9         R56       -0.8977
    10        R15       1
    10        R16       -1
    11        R7        -1
    11        R14       1
    11        R17       1
    11        R34       -1
    11        R36       1
    11        R48       -1
    12        R34       1
    12        R36       -2
    12        R37       2
    12        R46       -0.5
    12        R54       1
    12        R55       -1
    13        R36       1
    13        R37       -1
    13        R39       1
    13        R40       -1
    14        R1        -1
    14        R34       1
    14        R49       1
    15        R20       1
    15        R21       -1
    15        R36       1
    15        R37       -1
    16        R6        -1
    17        R11       -1
    18        R16       -1
    19        R21       -1
    20        R27       -1
    21        R29       -1
    22        R32       -1
    23        R35       -1
    24        R37       -1
    25        R40       -1
    26        R47       -1
    27        R51       -1
    28        R53       -1
    29        R60       -1
    30        R18       1
    30        R25       -1
    30        R30       1
    31        R22       1
    31        R25       -1
    31        R34       -1
    31        R50       1
    32        R26       1
    32        R27       -1
    33        R23       1
    33        R24       -1
    33        R28       -1
    33        R59       1
    34        R28       -1
    34        R34       -1
    34        R41       1
    35        R28       1
    35        R29       -1
    35        R36       2
    35        R37       -2
    36        R4        1
    36        R31       -1
    36        R36       1
    36        R44       -1
    36        R45       1
    37        R0        1
    37        R30       -1
    37        R36       1
    37        R42       -1
    37        R43       1
    37        R50       -1
    38        R31       1
    38        R32       -1
    38        R49       -1
    38        R52       1
    39        R3        -1
    39        R15       1
    39        R44       -1
    39        R45       1
    39        R57       1
    40        R34       1
    40        R35       -1
    41        R10       1
    41        R15       1
    41        R38       -1
    41        R44       -1
    41        R45       1
    42        R33       1
    42        R38       -1
    42        R59       1
    43        R36       1
    43        R39       -1
    43        R42       -1
    43        R43       1
    43        R52       1
    44        R7        -1
    44        R17       1
    44        R33       -1
    44        R34       -1
    44        R36       1
    44        R41       1
    45        R36       1
    45        R41       -1
    45        R42       -1
    45        R43       1
    45        R48       1
    46        R15       1
    46        R41       -1
    46        R42       -1
    46        R43       1
    46        R52       1
    47        R15       1
    47        R41       -1
    47        R44       -1
    47        R45       1
    47        R52       1
    48        R36       -3
    48        R37       2
    48        R42       1
    48        R43       -1
    48        R54       -1
    48        R55       1
    49        R42       -1
    49        R43       1
    49        R44       1
    49        R45       -1
    50        R46       1
    50        R47       -1
    51        R7        1
    51        R15       1
    51        R17       -1
    51        R42       -1
    51        R43       1
    51        R52       -1
    52        R9        1
    52        R13       -1
    52        R22       -1
    52        R25       1
    52        R36       1
    53        R7        1
    53        R17       -1
    53        R26       1
    53        R52       -1
    54        R22       1
    54        R31       -1
    55        R0        1
    55        R2        -1
    55        R9        1
    55        R13       -1
    56        R3        1
    56        R4        -1
    56        R34       -1
    56        R36       1
    57        R1        -1
    57        R2        1
    58        R50       -1
    58        R51       1
    59        R15       -1
    59        R34       -1
    59        R36       1
    59        R48       1
    59        R49       -1
    59        R50       1
    60        R9        1
    60        R13       -1
    60        R15       1
    60        R48       -1
    60        R49       1
    61        R12       1
    61        R13       -1
    61        R34       -1
    61        R36       2
    61        R49       1
    61        R50       1
    61        R52       -1
    62        R7        -1
    62        R8        1
    62        R17       1
    62        R50       -1
    63        R9        -1
    63        R13       1
    63        R36       -1
    63        R49       -1
    63        R52       1
    64        R36       1
    64        R37       -1
    64        R52       1
    64        R53       -1
    65        R57       -1
    65        R62       1
    66        R56       -1
    66        R57       1
    67        R36       2
    67        R37       -2
    67        R59       1
    67        R60       -1
    68        R36       -1
    68        R37       1
    68        R59       -1
    68        R60       1
    69        R23       -1
    69        R24       1
    69        R28       1
    69        R59       -1
    70        R23       1
    70        R24       -1
    70        R54       -1
    70        R55       1
    71        R9        1
    71        R13       -1
    71        R17       -1
    71        R50       1
    71        R59       -1
    71        R61       1
    72        R19       1
    72        R22       1
    72        R30       -1
    72        R58       -1
    73        R36       2
    73        R37       -2
    73        R42       1
    73        R43       -1
    73        R44       -1
    73        R45       1
    74        R30       1
    74        R56       -1
    74        R58       1
    74        R62       -1
    75        R19       -1
    75        R22       1
    75        R30       1
    75        R62       -1
    76        R18       -1
    76        R30       1
RHS
BOUNDS
 LO BND1      0         -999999
 UP BND1      0         999999
 LO BND1      1         -999999
 UP BND1      1         999999
 LO BND1      2         -999999
 UP BND1      2         999999
 LO BND1      3         -999999
 UP BND1      3         999999
 LO BND1      4         -999999
 UP BND1      4         999999
 UP BND1      5         999999
 LO BND1      6         -999999
 UP BND1      6         999999
 FX BND1      7         7.6
 LO BND1      8         -999999
 UP BND1      8         999999
 UP BND1      9         999999
 LO BND1      10        -999999
 UP BND1      10        999999
 UP BND1      11        999999
 UP BND1      12        999999
 LO BND1      13        -999999
 UP BND1      13        999999
 LO BND1      14        -999999
 UP BND1      14        999999
 LO BND1      15        -999999
 UP BND1      15        999999
 UP BND1      16        999999
 UP BND1      17        999999
 LO BND1      18        -999999
 UP BND1      18        999999
 UP BND1      19        999999
 UP BND1      20        999999
 UP BND1      21        999999
 LO BND1      22        -10
 UP BND1      22        999999
 LO BND1      23        -999999
 UP BND1      23        999999
 LO BND1      24        -999999
 UP BND1      24        999999
 UP BND1      25        999999
 LO BND1      26        -999999
 UP BND1      26        999999
 LO BND1      27        -999999
 UP BND1      27        999999
 UP BND1      28        999999
 UP BND1      29        999999
 LO BND1      30        -999999
 UP BND1      30        999999
 UP BND1      31        999999
 LO BND1      32        -999999
 UP BND1      32        999999
 UP BND1      33        999999
 LO BND1      34        -999999
 UP BND1      34        999999
 UP BND1      35        999999
 LO BND1      36        -999999
 UP BND1      36        999999
 LO BND1      37        -999999
 UP BND1      37        999999
 UP BND1      38        999999
 UP BND1      39        999999
 LO BND1      40        -999999
 UP BND1      40        999999
 LO BND1      41        -999999
 UP BND1      41        999999
 UP BND1      42        999999
 LO BND1      43        -999999
 UP BND1      43        999999
 UP BND1      44        999999
 LO BND1      45        -999999
 UP BND1      45        999999
 UP BND1      46        999999
 UP BND1      47        999999
 UP BND1      48        999999
 UP BND1      49        999999
 LO BND1      50        -999999
 UP BND1      50        999999
 UP BND1      51        999999
 UP BND1      52        999999
 UP BND1      53        999999
 LO BND1      54        -999999
 UP BND1      54        999999
 LO BND1      55        -999999
 UP BND1      55        999999
 UP BND1      56        999999
 LO BND1      57        -999999
 UP BND1      57        999999
 LO BND1      58        -999999
 UP BND1      58        999999
 UP BND1      59        999999
 UP BND1      60        999999
 UP BND1      61        999999
 LO BND1      62        -999999
 UP BND1      62        999999
 UP BND1      63        999999
 LO BND1      64        -999999
 UP BND1      64        999999
 LO BND1      65        -999999
 UP BND1      65        999999
 LO BND1      66        -999999
 UP BND1      66        999999
 UP BND1      67        999999
 UP BND1      68        999999
 UP BND1      69        999999
 LO BND1      70        -999999
 UP BND1      70        999999
 LO BND1      71        -999999
 UP BND1      71        999999
 LO BND1      72        -999999
 UP BND1      72        999999
 UP BND1      73        999999
 LO BND1      74        -999999
 UP BND1      74        999999
 LO BND1      75        -999999
 UP BND1      75        999999
 LO BND1      76        -999999
 UP BND1      76        999999
ENDATA
